12 32 3 10
1 13 1 3 16 19 5 13 19 19 7 7 4 18 5 12 9 11 13 16 14 8 12 16 3 6 18 17 6 18 6 8 
7.97 5.79 7.43 2.1 5.69 7.85 2.29 7.56 1.56 4.76 6.91 4.39 0.02 3.86 4.58 2.91 2.59 2.66 2.82 1.38 7.89 5 1.46 3.57 7.41 2.53 2.95 1.05 6.66 0.37 7.25 5.11 
6.53 5.51 5.43 5.04 1.5 7.08 6.29 1.01 7.67 2.02 7.1 6.76 6.92 1.5 3.74 0.75 7.47 1.1 5.31 3.06 4.92 3.53 0.1 2.12 0.13 7.73 0.36 6.88 3.7 5.72 6.92 5.4 
4.98 2.13 5.86 7.24 7.83 1.41 4.48 1.25 6.9 0.55 2.67 3.08 2.25 2.45 2.04 7.38 5.88 6.82 1.23 7.49 4.86 0.15 3.63 6.06 7.28 1.51 0.95 6.65 4.66 4.46 0.25 5.93 
4 4 4 4 4 4 4 4 4 4 4 4 4 4 4 4 4 4 4 4 4 4 4 4 4 4 4 4 4 4 4 4 
0.57 3.49 7.23 5.61 6.79 7.13 0.93 3.09 3.51 5.58 6.49 4.99 4.69 0.97 6.71 6.11 0.8 4.82 2.72 1.23 4.86 6 1.4 5.36 3.59 2.97 2.91 4.63 0.69 3.76 2.05 2.08 
5.34 3.62 6.85 2.45 4.99 6.27 3.69 5.83 2.47 2.26 4.71 2.48 5.53 2.29 3.33 0.87 3.28 1.63 2.2 4.34 1.01 2.46 1.5 0.19 7.49 4.62 1.26 4.72 7.91 3.54 6.76 6.83 
2.44 2.92 7.92 7.94 1.17 0.51 3.46 0.27 1.08 1.01 6.53 0.36 7.11 5.79 0.34 3.97 4.28 2.24 1.05 5.4 3.67 3.74 4.06 5.62 0.98 7.1 7.57 4.43 6.77 0.68 2.67 5.11 
3.55 3.89 7.87 5.01 5.3 3.19 0.83 6.51 4.74 2.13 2.95 6.75 7.22 0.66 3.41 6.56 4.29 2.48 4.04 0.35 0.48 2.68 7 7.16 5.05 4.36 2.16 0.57 3.35 5.43 3.71 6.87 
1.98 0.37 6.03 7.43 0.18 1.67 4.77 4.31 3.79 4.01 7.66 5.79 1.42 0.44 0.47 0.07 3.87 2.91 0.2 1.23 4.33 1.68 1.92 2.75 3.81 0.69 0.3 1.96 4.04 0.73 7.11 6.22 
4.46 0.82 7.73 2.9 1.35 2.47 5.12 5.26 0.09 5.76 1.41 0.03 3.22 2.9 7.55 4.62 3.46 2.78 7.35 5.61 5.31 6.04 7.32 6.69 4.74 2.78 2.99 1.24 5.38 7.06 3.97 6.6 
4.24 1.44 0.57 3.34 6.08 1.94 5.39 2.7 6.15 4.19 5.76 4.13 3.35 0.35 5.79 5.14 8 7.72 5.4 0.39 2.22 6.78 7.61 1.45 7.98 5.02 6.67 0.58 3.86 0.24 1 3.21 
7.03 7.92 2.46 6.1 6.9 3.32 7.75 6.98 4.69 6.92 5.14 7.87 0.1 4.08 7.86 4.96 5.6 0.16 3.47 1.62 4.29 1.54 0.27 3.13 5.48 0.34 5.27 5.6 3.61 0.04 4.64 0.39 
1 1 1 1 1 1 1 1 1 1 1 1 1 1 1 1 1 1 1 1 1 1 1 1 1 1 1 1 1 1 1 1 
1 1 1 1 1 1 1 1 1 1 1 1 1 1 1 1 1 1 1 1 1 1 1 1 1 1 1 1 1 1 1 1 
1 1 1 1 1 1 1 1 1 1 1 1 1 1 1 1 1 1 1 1 1 1 1 1 1 1 1 1 1 1 1 1 
1 1 1 1 1 1 1 1 1 1 1 1 1 1 1 1 1 1 1 1 1 1 1 1 1 1 1 1 1 1 1 1 
1 1 1 1 1 1 1 1 1 1 1 1 1 1 1 1 1 1 1 1 1 1 1 1 1 1 1 1 1 1 1 1 
1 1 1 1 1 1 1 1 1 1 1 1 1 1 1 1 1 1 1 1 1 1 1 1 1 1 1 1 1 1 1 1 
1 1 1 1 1 1 1 1 1 1 1 1 1 1 1 1 1 1 1 1 1 1 1 1 1 1 1 1 1 1 1 1 
1 1 1 1 1 1 1 1 1 1 1 1 1 1 1 1 1 1 1 1 1 1 1 1 1 1 1 1 1 1 1 1 
1 1 1 1 1 1 1 1 1 1 1 1 1 1 1 1 1 1 1 1 1 1 1 1 1 1 1 1 1 1 1 1 
1 1 1 1 1 1 1 1 1 1 1 1 1 1 1 1 1 1 1 1 1 1 1 1 1 1 1 1 1 1 1 1 
1 1 1 1 1 1 1 1 1 1 1 1 1 1 1 1 1 1 1 1 1 1 1 1 1 1 1 1 1 1 1 1 
1 1 1 1 1 1 1 1 1 1 1 1 1 1 1 1 1 1 1 1 1 1 1 1 1 1 1 1 1 1 1 1 
0.01 0.01 0.01 0.01 0.01 0.01 0.01 0.01 0.01 0.01 0.01 0.01 0.01 0.01 0.01 0.01 0.01 0.01 0.01 0.01 0.01 0.01 0.01 0.01 0.01 0.01 0.01 0.01 0.01 0.01 0.01 0.01 
0.02 0.02 0.02 0.02 0.02 0.02 0.02 0.02 0.02 0.02 0.02 0.02 0.02 0.02 0.02 0.02 0.02 0.02 0.02 0.02 0.02 0.02 0.02 0.02 0.02 0.02 0.02 0.02 0.02 0.02 0.02 0.02 
0.03 0.03 0.03 0.03 0.03 0.03 0.03 0.03 0.03 0.03 0.03 0.03 0.03 0.03 0.03 0.03 0.03 0.03 0.03 0.03 0.03 0.03 0.03 0.03 0.03 0.03 0.03 0.03 0.03 0.03 0.03 0.03 
0.04 0.04 0.04 0.04 0.04 0.04 0.04 0.04 0.04 0.04 0.04 0.04 0.04 0.04 0.04 0.04 0.04 0.04 0.04 0.04 0.04 0.04 0.04 0.04 0.04 0.04 0.04 0.04 0.04 0.04 0.04 0.04 
0.125 0.125 0.125 0.125 0.125 0.125 0.125 0.125 0.125 0.125 0.125 0.125 0.125 0.125 0.125 0.125 0.125 0.125 0.125 0.125 0.125 0.125 0.125 0.125 0.125 0.125 0.125 0.125 0.125 0.125 0.125 0.125 
0.25 0.25 0.25 0.25 0.25 0.25 0.25 0.25 0.25 0.25 0.25 0.25 0.25 0.25 0.25 0.25 0.25 0.25 0.25 0.25 0.25 0.25 0.25 0.25 0.25 0.25 0.25 0.25 0.25 0.25 0.25 0.25 
0.375 0.375 0.375 0.375 0.375 0.375 0.375 0.375 0.375 0.375 0.375 0.375 0.375 0.375 0.375 0.375 0.375 0.375 0.375 0.375 0.375 0.375 0.375 0.375 0.375 0.375 0.375 0.375 0.375 0.375 0.375 0.375 
0.5 0.5 0.5 0.5 0.5 0.5 0.5 0.5 0.5 0.5 0.5 0.5 0.5 0.5 0.5 0.5 0.5 0.5 0.5 0.5 0.5 0.5 0.5 0.5 0.5 0.5 0.5 0.5 0.5 0.5 0.5 0.5 
0.625 0.625 0.625 0.625 0.625 0.625 0.625 0.625 0.625 0.625 0.625 0.625 0.625 0.625 0.625 0.625 0.625 0.625 0.625 0.625 0.625 0.625 0.625 0.625 0.625 0.625 0.625 0.625 0.625 0.625 0.625 0.625 
0.75 0.75 0.75 0.75 0.75 0.75 0.75 0.75 0.75 0.75 0.75 0.75 0.75 0.75 0.75 0.75 0.75 0.75 0.75 0.75 0.75 0.75 0.75 0.75 0.75 0.75 0.75 0.75 0.75 0.75 0.75 0.75 
0.875 0.875 0.875 0.875 0.875 0.875 0.875 0.875 0.875 0.875 0.875 0.875 0.875 0.875 0.875 0.875 0.875 0.875 0.875 0.875 0.875 0.875 0.875 0.875 0.875 0.875 0.875 0.875 0.875 0.875 0.875 0.875 
1 1 1 1 1 1 1 1 1 1 1 1 1 1 1 1 1 1 1 1 1 1 1 1 1 1 1 1 1 1 1 1 
